% File represents an instance of a Composite Structure problem to be solved by a CP framework
% Created on 2025-03-26 10:41:15.371
T = 52;
n = 9;
m = 12;
edges = [(1, 2),
(4, 5),
(7, 8),
(3, 2),
(6, 5),
(9, 8),
(1, 4),
(4, 7),
(2, 5),
(5, 8),
(3, 6),
(6, 9)];
counts = [|16, 6, 16, 12,
|14, 6, 14, 12,
|14, 10, 14, 14,
|16, 4, 16, 8,
|14, 4, 14, 8,
|14, 4, 14, 14,
|16, 4, 16, 4,
|14, 4, 14, 2,
|14, 4, 14, 8|];
